Version identifier: 12.10.0.0 | 2019-11-26 | 843d4de
CPXPARAM_WorkMem                                 28672
Tried aggregator 2 times.
MIP Presolve eliminated 10 rows and 0 columns.
MIP Presolve added 20 rows and 0 columns.
Aggregator did 30 substitutions.
Reduced MIP has 52 rows, 50 columns, and 208 nonzeros.
Reduced MIP has 50 binaries, 0 generals, 0 SOSs, and 0 indicators.
Presolve time = 0,00 sec. (0,38 ticks)
Found incumbent of value 36,000000 after 0,00 sec. (0,45 ticks)
Probing time = 0,00 sec. (0,16 ticks)
Tried aggregator 1 time.
Detecting symmetries...
Reduced MIP has 52 rows, 50 columns, and 208 nonzeros.
Reduced MIP has 50 binaries, 0 generals, 0 SOSs, and 0 indicators.
Presolve time = 0,00 sec. (0,16 ticks)
Probing time = 0,00 sec. (0,16 ticks)
Clique table members: 204.
MIP emphasis: balance optimality and feasibility.
MIP search method: dynamic search.
Parallel mode: deterministic, using up to 16 threads.
Root relaxation solution time = 0,00 sec. (0,09 ticks)

        Nodes                                         Cuts/
   Node  Left     Objective  IInf  Best Integer    Best Bound    ItCnt     Gap

*     0+    0                           36,0000        0,0000           100,00%
*     0+    0                           34,0000        0,0000           100,00%
      0     0       20,0000    35       34,0000       20,0000       21   41,18%
*     0+    0                           32,0000       20,0000            37,50%
      0     0       26,0800    35       32,0000      Cuts: 59       56   18,50%
      0     0       27,0000    35       32,0000      Cuts: 62       68   15,62%
      0     0       27,0000    35       32,0000      Cuts: 46       78   15,62%
*     0+    0                           31,0000       27,0000            12,90%
      0     0       27,0000    35       31,0000      Cuts: 18       89   12,90%
      0     0        cutoff             31,0000       31,0000       89    0,00%
Elapsed time = 0,02 sec. (5,39 ticks, tree = 0,01 MB, solutions = 4)

Clique cuts applied:  7
Cover cuts applied:  6
Implied bound cuts applied:  8
Mixed integer rounding cuts applied:  3
Zero-half cuts applied:  1
Gomory fractional cuts applied:  5

Root node processing (before b&c):
  Real time             =    0,02 sec. (5,40 ticks)
Parallel b&c, 16 threads:
  Real time             =    0,00 sec. (0,00 ticks)
  Sync time (average)   =    0,00 sec.
  Wait time (average)   =    0,00 sec.
                          ------------
Total (root+branch&cut) =    0,02 sec. (5,40 ticks)
